letting n =  10
letting blocks =  [[1, 1], [1, 2], [1, 4], [1, 5], [1, 10], [2, 2], [2, 6], [2, 7], [2, 10], [3, 2], [3, 4], [3, 5], [3, 8], [3, 9], [3, 10], [4, 4], [4, 5], [4, 6], [4, 7], [5, 6], [5, 7], [5, 9], [5, 10], [6, 2], [6, 4], [6, 5], [6, 7], [6, 9], [7, 1], [7, 2], [7, 5], [7, 8], [7, 9], [8, 8], [9, 9], [10, 1], [10, 3], [10, 5], [10, 8], [10, 10]]
